6 6 101
6 5 1 1 1 3 1 3 2 2 3 6 4 4 14 26 39 48 58 58 80 80 90 90 100 
5 6 1 6 2 6 3 5 3 5 4 30 42 42 56 56 73 73 89 89 97 
6 2 1 2 2 5 2 4 1 4 2 4 3 10 24 24 45 45 58 60 71 71 92 92 101 
3 1 2 1 3 3 3 58 77 77 88 90 101 
8 5 1 0 0 6 1 0 0 4 1 5 3 0 0 3 3 0 4 4 22 22 30 30 50 50 60 60 66 66 80 80 90 
11 2 1 0 0 1 1 5 2 0 0 3 1 1 2 0 0 2 3 0 0 6 4 0 10 10 22 22 26 26 32 32 44 44 48 48 58 58 64 64 72 72 76 76 90 
